30
1 0 6
2 1 4
3 0 5
3 1 4
5 1 4
5 2 1
5 3 5
5 4 1
6 0 2
6 1 4
6 3 6
6 4 6
6 5 6
7 0 6
7 1 3
7 2 5
7 4 2
8 0 3
8 1 1
8 2 4
8 3 5
8 4 2
8 5 1
8 6 2
9 0 2
9 1 2
9 2 2
9 3 3
9 4 3
9 6 1
9 7 4
10 0 6
10 2 2
10 4 1
10 5 4
10 7 3
10 8 3
10 9 2
11 0 5
11 1 1
11 2 3
11 4 3
11 6 6
11 7 5
11 8 6
11 10 4
12 1 1
12 6 4
12 7 4
12 9 2
12 10 6
12 11 5
13 1 2
13 3 3
13 4 2
13 5 5
13 10 5
13 12 2
14 0 1
14 1 6
14 3 1
14 5 1
14 10 3
14 11 3
14 12 2
15 1 6
15 5 2
15 6 2
15 7 1
15 8 2
15 9 2
15 11 2
15 12 5
16 1 5
16 4 3
16 6 3
16 7 2
16 9 3
16 10 5
16 11 5
16 12 5
16 13 6
16 15 2
17 1 2
17 3 2
17 4 4
17 5 4
17 7 6
17 8 1
17 9 1
17 10 3
17 12 4
17 14 3
17 16 2
18 0 3
18 1 6
18 3 5
18 4 5
18 10 1
18 11 6
18 12 3
18 13 1
18 14 1
18 17 6
19 0 1
19 1 6
19 2 4
19 4 3
19 5 6
19 9 5
19 12 2
19 15 1
19 16 1
19 18 2
20 2 4
20 3 2
20 7 5
20 9 6
20 12 3
20 14 1
20 15 3
20 16 3
20 17 1
20 18 6
21 2 4
21 3 6
21 4 1
21 6 6
21 7 4
21 12 2
21 13 4
21 16 6
21 17 5
21 18 1
22 1 6
22 3 2
22 6 4
22 7 6
22 12 6
22 13 4
22 15 4
22 16 6
22 18 1
22 19 3
22 20 1
22 21 2
23 0 5
23 3 2
23 4 2
23 5 6
23 6 2
23 8 5
23 9 6
23 12 5
23 14 1
23 15 1
23 18 1
23 19 4
23 22 1
24 0 1
24 7 5
24 11 6
24 12 1
24 13 1
24 14 2
24 15 2
24 17 6
24 18 3
24 19 3
24 20 5
24 22 3
25 2 1
25 3 1
25 6 2
25 7 6
25 9 4
25 10 4
25 11 3
25 12 1
25 13 5
25 14 5
25 20 1
25 21 6
25 23 2
25 24 6
26 3 5
26 4 3
26 6 5
26 7 6
26 8 5
26 12 5
26 13 4
26 14 1
26 15 5
26 16 1
26 18 3
26 19 5
26 23 6
26 25 3
27 1 3
27 2 5
27 6 5
27 7 3
27 9 5
27 10 2
27 11 2
27 12 5
27 13 5
27 14 3
27 15 6
27 16 5
27 18 3
27 23 3
27 26 1
28 0 5
28 1 6
28 2 4
28 3 6
28 4 6
28 6 3
28 8 4
28 11 2
28 12 2
28 13 3
28 16 6
28 18 2
28 19 2
28 20 6
28 22 5
28 24 3
29 0 3
29 1 6
29 2 2
29 3 1
29 4 5
29 5 5
29 6 3
29 7 6
29 8 6
29 9 6
29 12 5
29 13 1
29 14 6
29 15 3
29 16 5
29 18 4
29 21 6
29 24 3
29 25 6
